c Sudoku solution
p cnf 729 0
221 0
257 0
279 0
319 0
335 0
358 0
436 0
459 0
492 0
525 0
532 0
578 0
633 0
629 0
655 0
662 0
671 0
723 0
761 0
796 0
865 0
874 0
889 0
599 0
893 0
915 0
938 0
739 0
848 0
788 0
775 0
831 0
137 0
234 0
468 0
618 0
128 0
485 0
298 0
195 0
245 0
567 0
747 0
113 0
344 0
184 0
646 0
554 0
511 0
441 0
543 0
473 0
586 0
151 0
142 0
169 0
176 0
949 0
953 0
752 0
856 0
964 0
714 0
926 0
417 0
424 0
216 0
322 0
282 0
263 0
366 0
812 0
827 0
972 0
377 0
383 0
391 0
981 0
997 0
687 0
694 0
